% demand
num_movements = 26;
loading_factor = [1550, 1600, 1150, 1100, 900, 1550, 1100, 1000, 1950, 1900, 1700, 1900, 1250, 1300, 1750, 800, 1600, 900, 1100, 1300, 1250, 1900, 1850, 1700, 1050, 1750];
pickup_time = [0, 0, 0, 2, 2, 3, 4, 4, 4, 4, 5, 6, 6, 6, 6, 6, 7, 8, 8, 8, 8, 9, 10, 10, 11, 11];
delivery_time = [1, 3, 2, 4, 3, 4, 6, 6, 5, 6, 6, 8, 8, 8, 7, 8, 8, 9, 9, 9, 10, 12, 11, 11, 12, 12];

% transporter definition
total_capacity = 7000;
num_decks = 3;
capacity = [3000, 1000, 3000];

% ways out of decks
num_ways_out = 1;
paths_out = array3d(decks, ways_out, decks, [
% ways out of deck d1
2, 3, 0, 

% ways out of deck d2
3, 0, 0, 

% ways out of deck d3
0, 0, 0,	

]);

